15
45
957
987
971
956
802
946
684
984
742
828
727
972
979
906
202
51	61
639	649
398	408
744	754
350	360
869	879
587	597
629	639
215	225
690	700
760	770
407	417
498	508
981	991
61	71
501	511
32	42
60	70
873	883
491	501
689	699
740	750
939	949
163	173
302	312
500	510
584	594
888	898
899	909
85	95
502	512
925	935
907	917
647	657
888	898
102	112
902	912
543	553
198	208
985	995
965	975
37	47
611	621
613	623
836	846
